NAME : rnd49_20.tsp
TYPE : TSP
DIMENSION : 20
EDGE_WEIGHT_TYPE : EUC_2D
NODE_COORD_SECTION
1 287 263
2 414 800
3 331 381
4 652 388
5 912 622
6 418 1000
7 752 546
8 638 599
9 3 369
10 347 541
11 56 699
12 121 594
13 302 867
14 465 298
15 362 337
16 434 253
17 142 448
18 476 690
19 274 612
20 765 12
